Calculando min-max:
Criando instancia max-E...
Instancia criada.
Resolvendo instancia...

Welcome to IBM(R) ILOG(R) CPLEX(R) Interactive Optimizer 22.1.0.0
  with Simplex, Mixed Integer & Barrier Optimizers
5725-A06 5725-A29 5724-Y48 5724-Y49 5724-Y54 5724-Y55 5655-Y21
Copyright IBM Corp. 1988, 2022.  All Rights Reserved.

Type 'help' for a list of available commands.
Type 'help' followed by a command name for more
information on commands.

CPLEX> Logfile 'cplex.log' closed.
Logfile 'C:\Users\LUCASP~1\AppData\Local\Temp\tmpowhggeyc.cplex.log' open.
CPLEX> Problem 'C:\Users\LUCASP~1\AppData\Local\Temp\tmp68evocwh.pyomo.lp' read.
Read time = 0.03 sec. (0.82 ticks)
CPLEX> Problem name         : C:\Users\LUCASP~1\AppData\Local\Temp\tmp68evocwh.pyomo.lp
Objective sense      : Maximize
Variables            :    5232  [Nneg: 1,  Binary: 5220,  General Integer: 11]
Objective nonzeros   :      30
Linear constraints   :    8245  [Less: 5021,  Greater: 1,  Equal: 3223]
  Nonzeros           :   20786
  RHS nonzeros       :    1593

Variables            : Min LB: 0.000000         Max UB: 1.000000       
Objective nonzeros   : Min   : 0.3058910        Max   : 0.7619800      
Linear constraints   :
  Nonzeros           : Min   : 1.000000         Max   : 100000.0       
  RHS nonzeros       : Min   : 1.000000         Max   : 10.00000       
CPLEX> Version identifier: 22.1.0.0 | 2022-03-09 | 1a383f8ce
Tried aggregator 3 times.
MIP Presolve eliminated 5105 rows and 3619 columns.
MIP Presolve modified 369 coefficients.
Aggregator did 172 substitutions.
Reduced MIP has 2968 rows, 1441 columns, and 7950 nonzeros.
Reduced MIP has 1431 binaries, 10 generals, 0 SOSs, and 0 indicators.
Presolve time = 0.09 sec. (23.62 ticks)
Found incumbent of value 1.517871 after 0.13 sec. (37.83 ticks)
Probing time = 0.02 sec. (3.40 ticks)
Tried aggregator 1 time.
Detecting symmetries...
Reduced MIP has 2968 rows, 1441 columns, and 7950 nonzeros.
Reduced MIP has 1431 binaries, 10 generals, 0 SOSs, and 0 indicators.
Presolve time = 0.03 sec. (11.78 ticks)
Probing time = 0.00 sec. (3.35 ticks)
Clique table members: 5399.
MIP emphasis: balance optimality and feasibility.
MIP search method: dynamic search.
Parallel mode: deterministic, using up to 4 threads.
Root relaxation solution time = 0.05 sec. (14.74 ticks)

        Nodes                                         Cuts/
   Node  Left     Objective  IInf  Best Integer    Best Bound    ItCnt     Gap

*     0+    0                            1.5179       17.0141              --- 
      0     0        7.6198    27        1.5179        7.6198      271  402.01%
*     0+    0                            7.6198        7.6198             0.00%
      0     0        cutoff              7.6198        7.6198      271    0.00%
Elapsed time = 0.42 sec. (136.20 ticks, tree = 0.01 MB, solutions = 2)

Root node processing (before b&c):
  Real time             =    0.42 sec. (136.43 ticks)
Parallel b&c, 4 threads:
  Real time             =    0.00 sec. (0.00 ticks)
  Sync time (average)   =    0.00 sec.
  Wait time (average)   =    0.00 sec.
                          ------------
Total (root+branch&cut) =    0.42 sec. (136.43 ticks)

Solution pool: 2 solutions saved.

MIP - Integer optimal solution:  Objective =  7.6198000000e+00
Solution time =    0.42 sec.  Iterations = 271  Nodes = 0
Deterministic time = 136.44 ticks  (323.32 ticks/sec)

CPLEX> Incumbent solution written to file 'C:\Users\LUCASP~1\AppData\Local\Temp\tmp7nqt_flu.cplex.sol'.
CPLEX> Criando instancia max-C...
Instancia criada.
Resolvendo instancia...

Welcome to IBM(R) ILOG(R) CPLEX(R) Interactive Optimizer 22.1.0.0
  with Simplex, Mixed Integer & Barrier Optimizers
5725-A06 5725-A29 5724-Y48 5724-Y49 5724-Y54 5724-Y55 5655-Y21
Copyright IBM Corp. 1988, 2022.  All Rights Reserved.

Type 'help' for a list of available commands.
Type 'help' followed by a command name for more
information on commands.

CPLEX> Logfile 'cplex.log' closed.
Logfile 'C:\Users\LUCASP~1\AppData\Local\Temp\tmpp1xr1wyz.cplex.log' open.
CPLEX> Problem 'C:\Users\LUCASP~1\AppData\Local\Temp\tmpczcfluil.pyomo.lp' read.
Read time = 0.05 sec. (0.82 ticks)
CPLEX> Problem name         : C:\Users\LUCASP~1\AppData\Local\Temp\tmpczcfluil.pyomo.lp
Objective sense      : Maximize
Variables            :    5232  [Nneg: 1,  Binary: 5220,  General Integer: 11]
Objective nonzeros   :     100
Linear constraints   :    8245  [Less: 5021,  Greater: 1,  Equal: 3223]
  Nonzeros           :   20786
  RHS nonzeros       :    1593

Variables            : Min LB: 0.000000         Max UB: 1.000000       
Objective nonzeros   : Min   : 1.000000         Max   : 1.000000       
Linear constraints   :
  Nonzeros           : Min   : 1.000000         Max   : 100000.0       
  RHS nonzeros       : Min   : 1.000000         Max   : 10.00000       
CPLEX> Version identifier: 22.1.0.0 | 2022-03-09 | 1a383f8ce
Tried aggregator 3 times.
MIP Presolve eliminated 5105 rows and 3619 columns.
MIP Presolve modified 369 coefficients.
Aggregator did 172 substitutions.
Reduced MIP has 2968 rows, 1441 columns, and 7950 nonzeros.
Reduced MIP has 1431 binaries, 10 generals, 0 SOSs, and 0 indicators.
Presolve time = 0.08 sec. (23.58 ticks)
Found incumbent of value 0.000000 after 0.16 sec. (38.60 ticks)
Probing time = 0.00 sec. (3.41 ticks)
Tried aggregator 1 time.
Detecting symmetries...
Reduced MIP has 2968 rows, 1441 columns, and 7950 nonzeros.
Reduced MIP has 1431 binaries, 10 generals, 0 SOSs, and 0 indicators.
Presolve time = 0.08 sec. (22.70 ticks)
Probing time = 0.03 sec. (3.38 ticks)
Clique table members: 5399.
MIP emphasis: balance optimality and feasibility.
MIP search method: dynamic search.
Parallel mode: deterministic, using up to 4 threads.
Root relaxation solution time = 0.11 sec. (16.18 ticks)

        Nodes                                         Cuts/
   Node  Left     Objective  IInf  Best Integer    Best Bound    ItCnt     Gap

*     0+    0                            0.0000       73.0000              --- 
*     0+    0                           22.0000       73.0000           231.82%
      0     0       73.0000   206       22.0000       73.0000      479  231.82%
      0     0       73.0000   100       22.0000      Cuts: 33      657  231.82%
      0     0       73.0000   313       22.0000      Cuts: 96      899  231.82%
*     0+    0                           24.0000       73.0000           204.17%
*     0+    0                           73.0000       73.0000             0.00%
      0     0        cutoff             73.0000       73.0000      899    0.00%
Elapsed time = 1.23 sec. (276.33 ticks, tree = 0.01 MB, solutions = 4)

Implied bound cuts applied:  10

Root node processing (before b&c):
  Real time             =    1.23 sec. (276.61 ticks)
Parallel b&c, 4 threads:
  Real time             =    0.00 sec. (0.00 ticks)
  Sync time (average)   =    0.00 sec.
  Wait time (average)   =    0.00 sec.
                          ------------
Total (root+branch&cut) =    1.23 sec. (276.61 ticks)

Solution pool: 4 solutions saved.

MIP - Integer optimal solution:  Objective =  7.3000000000e+01
Solution time =    1.23 sec.  Iterations = 899  Nodes = 0
Deterministic time = 276.62 ticks  (224.17 ticks/sec)

CPLEX> Incumbent solution written to file 'C:\Users\LUCASP~1\AppData\Local\Temp\tmpobuvmygv.cplex.sol'.
CPLEX> Criando instancia min-E...
Instancia criada.
Resolvendo instancia...
Criando instancia min-C...
Instancia criada.
Resolvendo instancia...
Maximos: {'E': 7.6198000000000015, 'C': 73.0, 'M': 0}
Minimos: {'E': 0.611782, 'C': 0.0, 'M': 0}
Resolvendo instancia...

Welcome to IBM(R) ILOG(R) CPLEX(R) Interactive Optimizer 22.1.0.0
  with Simplex, Mixed Integer & Barrier Optimizers
5725-A06 5725-A29 5724-Y48 5724-Y49 5724-Y54 5724-Y55 5655-Y21
Copyright IBM Corp. 1988, 2022.  All Rights Reserved.

Type 'help' for a list of available commands.
Type 'help' followed by a command name for more
information on commands.

CPLEX> Logfile 'cplex.log' closed.
Logfile 'C:\Users\LUCASP~1\AppData\Local\Temp\tmpvuf0kbfo.cplex.log' open.
CPLEX> Problem 'C:\Users\LUCASP~1\AppData\Local\Temp\tmprc3_ljzv.pyomo.lp' read.
Read time = 0.03 sec. (0.82 ticks)
CPLEX> Problem name         : C:\Users\LUCASP~1\AppData\Local\Temp\tmprc3_ljzv.pyomo.lp
Objective sense      : Minimize
Variables            :    5232  [Nneg: 1,  Binary: 5220,  General Integer: 11]
Objective nonzeros   :     131
Linear constraints   :    8245  [Less: 5021,  Greater: 1,  Equal: 3223]
  Nonzeros           :   20786
  RHS nonzeros       :    1593

Variables            : Min LB: 0.000000         Max UB: 1.000000       
Objective nonzeros   : Min   : 0.006849315      Max   : 0.05436487     
Linear constraints   :
  Nonzeros           : Min   : 1.000000         Max   : 100000.0       
  RHS nonzeros       : Min   : 1.000000         Max   : 10.00000       
CPLEX> Version identifier: 22.1.0.0 | 2022-03-09 | 1a383f8ce
Tried aggregator 3 times.
MIP Presolve eliminated 5105 rows and 3619 columns.
MIP Presolve modified 369 coefficients.
Aggregator did 172 substitutions.
Reduced MIP has 2968 rows, 1441 columns, and 7950 nonzeros.
Reduced MIP has 1431 binaries, 10 generals, 0 SOSs, and 0 indicators.
Presolve time = 0.08 sec. (23.58 ticks)
Found incumbent of value 0.032106 after 0.11 sec. (38.19 ticks)
Probing time = 0.02 sec. (3.41 ticks)
Tried aggregator 1 time.
Detecting symmetries...
Reduced MIP has 2968 rows, 1441 columns, and 7950 nonzeros.
Reduced MIP has 1431 binaries, 10 generals, 0 SOSs, and 0 indicators.
Presolve time = 0.05 sec. (11.78 ticks)
Probing time = 0.02 sec. (3.35 ticks)
Clique table members: 5399.
MIP emphasis: balance optimality and feasibility.
MIP search method: dynamic search.
Parallel mode: deterministic, using up to 4 threads.
Root relaxation solution time = 0.08 sec. (19.67 ticks)

        Nodes                                         Cuts/
   Node  Left     Objective  IInf  Best Integer    Best Bound    ItCnt     Gap

*     0+    0                            0.0321       -0.5436              --- 
*     0+    0                           -0.0912       -0.5436           496.23%
      0     0       -0.2912   200       -0.0912       -0.2912      651  219.39%
*     0+    0                           -0.0929       -0.2912           213.53%
      0     0       -0.2860   241       -0.0929      Cuts: 40      867  207.92%
      0     0       -0.2852   333       -0.0929     Cuts: 111     1024  207.08%
      0     0       -0.2852   254       -0.0929      Cuts: 72     1094  207.06%
      0     0       -0.2852   353       -0.0929     Cuts: 110     1152  206.99%
      0     0       -0.2852   351       -0.0929      Cuts: 31     1170  206.99%
      0     0       -0.2852   348       -0.0929      Cuts: 12     1180  206.99%
*     0+    0                           -0.1541       -0.2852            85.01%
*     0+    0                           -0.1760       -0.2852            62.06%
      0     0  -1.00000e+75     0       -0.1760       -0.2852     1180   62.06%
      0     2       -0.2852   348       -0.1760       -0.2852     1180   62.06%
Elapsed time = 1.89 sec. (406.56 ticks, tree = 0.02 MB, solutions = 5)
*     8+    3                           -0.1978       -0.2851            44.17%
*    93    61      integral     0       -0.2312       -0.2848     5095   23.18%
    299   153       -0.2538   141       -0.2312       -0.2751    12476   18.97%
    735   377        cutoff             -0.2312       -0.2718    23508   17.58%
   1202   606       -0.2546    35       -0.2312       -0.2694    34823   16.51%
   1734   826       -0.2357    26       -0.2312       -0.2664    46778   15.22%
   2211   997       -0.2474   102       -0.2312       -0.2641    57910   14.25%
   2740  1173       -0.2413    86       -0.2312       -0.2629    69823   13.71%
   3248  1310       -0.2539    57       -0.2312       -0.2606    81009   12.72%

Performing restart 1

Repeating presolve.
Tried aggregator 1 time.
MIP Presolve eliminated 737 rows and 347 columns.
Reduced MIP has 2231 rows, 1094 columns, and 6089 nonzeros.
Reduced MIP has 1084 binaries, 10 generals, 0 SOSs, and 0 indicators.
Presolve time = 0.06 sec. (8.94 ticks)
Tried aggregator 1 time.
Reduced MIP has 2231 rows, 1094 columns, and 6089 nonzeros.
Reduced MIP has 1084 binaries, 10 generals, 0 SOSs, and 0 indicators.
Presolve time = 0.03 sec. (6.98 ticks)
Represolve time = 0.47 sec. (61.62 ticks)
   3587     0       -0.2847   257       -0.2312      Cuts: 42    91985   12.07%
   3587     0       -0.2846   226       -0.2312      Cuts: 28    92097   12.07%
   3587     0       -0.2845   196       -0.2312      Cuts: 36    92226   12.07%
   3587     0       -0.2844   246       -0.2312      Cuts: 22    92339   12.07%
   3587     0       -0.2844   256       -0.2312      Cuts: 22    92521   12.07%
*  3587+    0                           -0.2367       -0.2591             9.45%
   3587     0       -0.2840   305       -0.2367      Cuts: 22    92772    9.45%
   3587     2       -0.2840   271       -0.2367       -0.2591    92772    9.45%
   3605    15       -0.2522    35       -0.2367       -0.2591    93794    9.45%
*  4003   185      integral     0       -0.2372       -0.2591   103049    9.25%
*  4174   261      integral     0       -0.2376       -0.2591   107271    9.05%
   4713   430       -0.2489    26       -0.2376       -0.2591   118090    9.05%
Elapsed time = 23.33 sec. (4531.68 ticks, tree = 0.54 MB, solutions = 11)
   6928   408       -0.2453     2       -0.2376       -0.2472   158809    4.05%

Cover cuts applied:  13
Implied bound cuts applied:  5
Flow cuts applied:  1
Mixed integer rounding cuts applied:  1
Zero-half cuts applied:  29
Lift and project cuts applied:  1
Gomory fractional cuts applied:  6

Root node processing (before b&c):
  Real time             =    1.88 sec. (405.69 ticks)
Parallel b&c, 4 threads:
  Real time             =   26.22 sec. (5279.53 ticks)
  Sync time (average)   =    3.12 sec.
  Wait time (average)   =    0.01 sec.
                          ------------
Total (root+branch&cut) =   28.09 sec. (5685.22 ticks)

Solution pool: 11 solutions saved.

MIP - Integer optimal solution:  Objective = -2.3760944494e-01
Solution time =   28.11 sec.  Iterations = 165383  Nodes = 7543
Deterministic time = 5685.24 ticks  (202.26 ticks/sec)

CPLEX> Incumbent solution written to file 'C:\Users\LUCASP~1\AppData\Local\Temp\tmpcrhbq_e_.cplex.sol'.
CPLEX> 
Resultados:

E: 0.38779480874621036 -- 3.3294550000000003 mA
C: 0.863013698630137 -- 63.0 m^2
WEIGHTED: -0.23760944494196332
Solving time: 28.11 s
Total Pyomo time: 28.51541829109192 s
Total elapsed time since execution: 127.86455392837524
